# Solution for model r10_t27_m6_9
# Finished Task: 23 / 27
# Makespan: 763.0, Total Distance: 1628.0, Total Time: 0.2918
# R O S F
0 0 10 0.0 0.0
1 1 11 0.0 0.0
2 2 16 0.0 0.0
3 3 12 0.0 0.0
4 4 15 0.0 0.0
5 5 21 0.0 0.0
6 6 24 0.0 0.0
7 7 13 0.0 0.0
8 8 18 0.0 0.0
9 9 28 0.0 0.0
10 0 31 277.0 307.0
11 1 23 157.0 183.0
12 3 -1 428.0 455.0
13 7 27 171.0 208.0
14 -1 -1 -1.0 -1.0
15 4 33 380.0 403.0
16 2 36 204.0 243.0
17 1 34 484.0 513.0
18 8 -1 455.0 477.0
19 -1 -1 -1.0 -1.0
20 6 -1 484.0 523.0
21 5 30 206.0 231.0
22 -1 -1 -1.0 -1.0
23 1 17 379.0 415.0
24 6 20 215.0 254.0
25 -1 -1 -1.0 -1.0
26 7 -1 461.0 488.0
27 7 29 284.0 311.0
28 9 -1 366.0 398.0
29 7 26 413.0 436.0
30 5 -1 454.0 474.0
31 0 35 407.0 428.0
32 2 -1 623.0 659.0
33 4 -1 441.0 461.0
34 1 -1 738.0 763.0
35 0 -1 704.0 738.0
36 2 32 445.0 484.0
